%-----------------------------------------------------------------------------%
% Dual Arm Multi Capacity Multi Tool Scheduling / Routing
% Assembly Configuration
% Auto Generated by python script, authored by Johan Ludde Wessen 
%-----------------------------------------------------------------------------%


task_durations = [|25, 33, 22, 24, 26, 30, 23, 46, 52, 61, 54, 61, 46, 50, 31, 36, 26, 32, 24,  5,  6,  8,  7,  6,  6
                  |29, 32, 25, 27, 26, 26, 27, 56, 53, 58, 56, 57, 49, 51, 32, 30, 25, 32, 27,  5,  7,  7,  7,  7,  5
                  |];


TRAY_TASKS = 1..5;
CAMERA_TASKS = 15..19;
OUTPUT_TASKS = { 14 };


empty_gripper_tasks = 20..25;


gripper_pick_tasks_orders = [|6, 13, -1
|7, 14, -1
|];

suction_pick_tasks_orders = [|1, 15, 8, -1
|2, 16, 9, -1
|3, 17, 10, -1
|4, 18, 11, -1
|5, 19, 12, -1
|];

fixture_task_orders = [|8, 20, 9, 21, 10, 22, 6, -1
|11, 23, 12, 24, 13, 25, 7, -1
|];

